p cnf 400 1
400 0
w 1 0.176885
w 2 1 0.522903
w 2 -1 0.910676
w 3 2 0.0593311
w 3 -2 0.126026
w 4 3 0
w 4 -3 1
w 5 4 0.143563
w 5 -4 0.969318
w 6 5 0
w 6 -5 1
w 7 6 0
w 7 -6 1
w 8 7 1
w 8 -7 0
w 9 8 0.657596
w 9 -8 0.389299
w 10 9 0.43852
w 10 -9 0.932331
w 11 10 0.2204
w 11 -10 0.0968578
w 12 11 0.293427
w 12 -11 0.91287
w 13 12 0.470312
w 13 -12 0.655354
w 14 13 1
w 14 -13 0
w 15 14 0
w 15 -14 1
w 16 15 0.773467
w 16 -15 0.23148
w 17 16 1
w 17 -16 0
w 18 17 0
w 18 -17 1
w 19 18 0.600017
w 19 -18 0.0905446
w 20 19 0
w 20 -19 1
w 21 1 0.901358
w 21 -1 0.676404
w 22 21 2 0
w 22 21 -2 0
w 22 -21 2 0
w 22 -21 -2 1
w 23 22 3 0.724438
w 23 22 -3 0.853704
w 23 -22 3 0.618463
w 23 -22 -3 0.534964
w 24 23 4 0
w 24 23 -4 0
w 24 -23 4 1
w 24 -23 -4 1
w 25 24 5 1
w 25 24 -5 1
w 25 -24 5 0
w 25 -24 -5 1
w 26 25 6 1
w 26 25 -6 1
w 26 -25 6 1
w 26 -25 -6 0
w 27 26 7 0.587777
w 27 26 -7 0.580553
w 27 -26 7 0.242624
w 27 -26 -7 0.489135
w 28 27 8 0
w 28 27 -8 1
w 28 -27 8 0
w 28 -27 -8 0
w 29 28 9 1
w 29 28 -9 1
w 29 -28 9 1
w 29 -28 -9 0
w 30 29 10 0.56701
w 30 29 -10 0.463567
w 30 -29 10 0.476109
w 30 -29 -10 0.272014
w 31 30 11 1
w 31 30 -11 1
w 31 -30 11 0
w 31 -30 -11 1
w 32 31 12 0
w 32 31 -12 0
w 32 -31 12 0
w 32 -31 -12 1
w 33 32 13 1
w 33 32 -13 1
w 33 -32 13 1
w 33 -32 -13 0
w 34 33 14 1
w 34 33 -14 1
w 34 -33 14 0
w 34 -33 -14 1
w 35 34 15 0.491264
w 35 34 -15 0.294683
w 35 -34 15 0.0518607
w 35 -34 -15 0.681013
w 36 35 16 0.61887
w 36 35 -16 0.14458
w 36 -35 16 0.378508
w 36 -35 -16 0.890885
w 37 36 17 1
w 37 36 -17 1
w 37 -36 17 1
w 37 -36 -17 0
w 38 37 18 0
w 38 37 -18 1
w 38 -37 18 1
w 38 -37 -18 0
w 39 38 19 1
w 39 38 -19 1
w 39 -38 19 1
w 39 -38 -19 0
w 40 39 20 1
w 40 39 -20 1
w 40 -39 20 0
w 40 -39 -20 0
w 41 21 0.691028
w 41 -21 0.748622
w 42 41 22 0.742889
w 42 41 -22 0.429635
w 42 -41 22 0.840858
w 42 -41 -22 0.361759
w 43 42 23 0.219366
w 43 42 -23 0.252644
w 43 -42 23 0.929733
w 43 -42 -23 0.335137
w 44 43 24 0.0170228
w 44 43 -24 0.680803
w 44 -43 24 0.112523
w 44 -43 -24 0.273952
w 45 44 25 0.16941
w 45 44 -25 0.0445368
w 45 -44 25 0.435563
w 45 -44 -25 0.350657
w 46 45 26 0.718658
w 46 45 -26 0.898886
w 46 -45 26 0.379135
w 46 -45 -26 0.0560385
w 47 46 27 0
w 47 46 -27 1
w 47 -46 27 1
w 47 -46 -27 0
w 48 47 28 1
w 48 47 -28 1
w 48 -47 28 1
w 48 -47 -28 0
w 49 48 29 0
w 49 48 -29 1
w 49 -48 29 1
w 49 -48 -29 1
w 50 49 30 1
w 50 49 -30 1
w 50 -49 30 0
w 50 -49 -30 0
w 51 50 31 0
w 51 50 -31 1
w 51 -50 31 0
w 51 -50 -31 0
w 52 51 32 0.247668
w 52 51 -32 0.0831457
w 52 -51 32 0.468655
w 52 -51 -32 0.626803
w 53 52 33 1
w 53 52 -33 1
w 53 -52 33 0
w 53 -52 -33 1
w 54 53 34 0.514599
w 54 53 -34 0.656859
w 54 -53 34 0.535637
w 54 -53 -34 0.00625348
w 55 54 35 0
w 55 54 -35 0
w 55 -54 35 1
w 55 -54 -35 1
w 56 55 36 1
w 56 55 -36 0
w 56 -55 36 1
w 56 -55 -36 1
w 57 56 37 0.36693
w 57 56 -37 0.570251
w 57 -56 37 0.108217
w 57 -56 -37 0.698044
w 58 57 38 0.677986
w 58 57 -38 0.945712
w 58 -57 38 0.0178843
w 58 -57 -38 0.14664
w 59 58 39 0.157069
w 59 58 -39 0.936027
w 59 -58 39 0.460614
w 59 -58 -39 0.609649
w 60 59 40 0.301038
w 60 59 -40 0.124249
w 60 -59 40 0.34678
w 60 -59 -40 0.836675
w 61 41 1
w 61 -41 0
w 62 61 42 0
w 62 61 -42 1
w 62 -61 42 0
w 62 -61 -42 0
w 63 62 43 0
w 63 62 -43 1
w 63 -62 43 1
w 63 -62 -43 1
w 64 63 44 0.168236
w 64 63 -44 0.415677
w 64 -63 44 0.91985
w 64 -63 -44 0.846222
w 65 64 45 0
w 65 64 -45 0
w 65 -64 45 1
w 65 -64 -45 1
w 66 65 46 0.394518
w 66 65 -46 0.704452
w 66 -65 46 0.618809
w 66 -65 -46 0.695556
w 67 66 47 0.965588
w 67 66 -47 0.532231
w 67 -66 47 0.959203
w 67 -66 -47 0.713051
w 68 67 48 0.161829
w 68 67 -48 0.824386
w 68 -67 48 0.293024
w 68 -67 -48 0.43218
w 69 68 49 0.463938
w 69 68 -49 0.782884
w 69 -68 49 0.0127794
w 69 -68 -49 0.523957
w 70 69 50 0.997891
w 70 69 -50 0.692193
w 70 -69 50 0.916194
w 70 -69 -50 0.917741
w 71 70 51 0.277583
w 71 70 -51 0.855475
w 71 -70 51 0.531277
w 71 -70 -51 0.211488
w 72 71 52 0.460166
w 72 71 -52 0.606006
w 72 -71 52 0.65473
w 72 -71 -52 0.078975
w 73 72 53 1
w 73 72 -53 1
w 73 -72 53 1
w 73 -72 -53 0
w 74 73 54 0.795308
w 74 73 -54 0.604463
w 74 -73 54 0.582
w 74 -73 -54 0.0883322
w 75 74 55 1
w 75 74 -55 0
w 75 -74 55 0
w 75 -74 -55 1
w 76 75 56 1
w 76 75 -56 1
w 76 -75 56 1
w 76 -75 -56 0
w 77 76 57 1
w 77 76 -57 0
w 77 -76 57 1
w 77 -76 -57 1
w 78 77 58 0.914084
w 78 77 -58 0.298278
w 78 -77 58 0.331315
w 78 -77 -58 0.568814
w 79 78 59 0
w 79 78 -59 1
w 79 -78 59 1
w 79 -78 -59 1
w 80 79 60 1
w 80 79 -60 0
w 80 -79 60 1
w 80 -79 -60 0
w 81 61 1
w 81 -61 0
w 82 81 62 0.90258
w 82 81 -62 0.955512
w 82 -81 62 0.13405
w 82 -81 -62 0.978807
w 83 82 63 0
w 83 82 -63 0
w 83 -82 63 0
w 83 -82 -63 1
w 84 83 64 1
w 84 83 -64 0
w 84 -83 64 0
w 84 -83 -64 0
w 85 84 65 0
w 85 84 -65 0
w 85 -84 65 0
w 85 -84 -65 1
w 86 85 66 0.989522
w 86 85 -66 0.181787
w 86 -85 66 0.4268
w 86 -85 -66 0.168953
w 87 86 67 0
w 87 86 -67 0
w 87 -86 67 0
w 87 -86 -67 1
w 88 87 68 0.696655
w 88 87 -68 0.61764
w 88 -87 68 0.00578689
w 88 -87 -68 0.675462
w 89 88 69 0.330427
w 89 88 -69 0.422689
w 89 -88 69 0.40499
w 89 -88 -69 0.763398
w 90 89 70 0
w 90 89 -70 1
w 90 -89 70 0
w 90 -89 -70 0
w 91 90 71 0
w 91 90 -71 1
w 91 -90 71 1
w 91 -90 -71 1
w 92 91 72 1
w 92 91 -72 0
w 92 -91 72 1
w 92 -91 -72 1
w 93 92 73 0.235572
w 93 92 -73 0.215942
w 93 -92 73 0.398513
w 93 -92 -73 0.8977
w 94 93 74 0
w 94 93 -74 1
w 94 -93 74 0
w 94 -93 -74 0
w 95 94 75 1
w 95 94 -75 0
w 95 -94 75 1
w 95 -94 -75 1
w 96 95 76 0.244132
w 96 95 -76 0.347466
w 96 -95 76 0.0389947
w 96 -95 -76 0.425663
w 97 96 77 0.598371
w 97 96 -77 0.689433
w 97 -96 77 0.169211
w 97 -96 -77 0.725452
w 98 97 78 0.451842
w 98 97 -78 0.842056
w 98 -97 78 0.828992
w 98 -97 -78 0.161272
w 99 98 79 0
w 99 98 -79 1
w 99 -98 79 1
w 99 -98 -79 0
w 100 99 80 0
w 100 99 -80 0
w 100 -99 80 1
w 100 -99 -80 0
w 101 81 0.218419
w 101 -81 0.948592
w 102 101 82 0.0319448
w 102 101 -82 0.135883
w 102 -101 82 0.561134
w 102 -101 -82 0.276077
w 103 102 83 0
w 103 102 -83 1
w 103 -102 83 0
w 103 -102 -83 0
w 104 103 84 1
w 104 103 -84 1
w 104 -103 84 1
w 104 -103 -84 0
w 105 104 85 0.888484
w 105 104 -85 0.0841756
w 105 -104 85 0.893621
w 105 -104 -85 0.321914
w 106 105 86 1
w 106 105 -86 1
w 106 -105 86 0
w 106 -105 -86 1
w 107 106 87 0
w 107 106 -87 1
w 107 -106 87 1
w 107 -106 -87 0
w 108 107 88 1
w 108 107 -88 0
w 108 -107 88 1
w 108 -107 -88 0
w 109 108 89 0
w 109 108 -89 0
w 109 -108 89 1
w 109 -108 -89 0
w 110 109 90 1
w 110 109 -90 0
w 110 -109 90 1
w 110 -109 -90 1
w 111 110 91 0.152775
w 111 110 -91 0.540925
w 111 -110 91 0.613118
w 111 -110 -91 0.474689
w 112 111 92 0
w 112 111 -92 1
w 112 -111 92 1
w 112 -111 -92 0
w 113 112 93 0.382956
w 113 112 -93 0.711816
w 113 -112 93 0.48823
w 113 -112 -93 0.186822
w 114 113 94 0.158007
w 114 113 -94 0.0226328
w 114 -113 94 0.131104
w 114 -113 -94 0.388917
w 115 114 95 0
w 115 114 -95 0
w 115 -114 95 1
w 115 -114 -95 0
w 116 115 96 1
w 116 115 -96 1
w 116 -115 96 0
w 116 -115 -96 0
w 117 116 97 0.92248
w 117 116 -97 0.570012
w 117 -116 97 0.486345
w 117 -116 -97 0.535598
w 118 117 98 0
w 118 117 -98 0
w 118 -117 98 1
w 118 -117 -98 1
w 119 118 99 0.382765
w 119 118 -99 0.688755
w 119 -118 99 0.616414
w 119 -118 -99 0.870995
w 120 119 100 0.469932
w 120 119 -100 0.0290015
w 120 -119 100 0.89821
w 120 -119 -100 0.601037
w 121 101 0
w 121 -101 1
w 122 121 102 0
w 122 121 -102 1
w 122 -121 102 0
w 122 -121 -102 0
w 123 122 103 1
w 123 122 -103 1
w 123 -122 103 0
w 123 -122 -103 0
w 124 123 104 1
w 124 123 -104 1
w 124 -123 104 0
w 124 -123 -104 1
w 125 124 105 0.93432
w 125 124 -105 0.839024
w 125 -124 105 0.182423
w 125 -124 -105 0.838918
w 126 125 106 1
w 126 125 -106 1
w 126 -125 106 0
w 126 -125 -106 0
w 127 126 107 0.121785
w 127 126 -107 0.644964
w 127 -126 107 0.526301
w 127 -126 -107 0.539703
w 128 127 108 0.0193763
w 128 127 -108 0.177577
w 128 -127 108 0.658572
w 128 -127 -108 0.467276
w 129 128 109 1
w 129 128 -109 0
w 129 -128 109 0
w 129 -128 -109 0
w 130 129 110 0
w 130 129 -110 1
w 130 -129 110 0
w 130 -129 -110 1
w 131 130 111 0.650869
w 131 130 -111 0.469334
w 131 -130 111 0.713216
w 131 -130 -111 0.489787
w 132 131 112 0.584393
w 132 131 -112 0.945119
w 132 -131 112 0.783907
w 132 -131 -112 0.331147
w 133 132 113 0.905692
w 133 132 -113 0.976111
w 133 -132 113 0.396684
w 133 -132 -113 0.445395
w 134 133 114 0.41606
w 134 133 -114 0.622972
w 134 -133 114 0.312377
w 134 -133 -114 0.883336
w 135 134 115 0.104774
w 135 134 -115 0.287182
w 135 -134 115 0.843209
w 135 -134 -115 0.448233
w 136 135 116 0.0113311
w 136 135 -116 0.912767
w 136 -135 116 0.227186
w 136 -135 -116 0.72788
w 137 136 117 0.757979
w 137 136 -117 0.37875
w 137 -136 117 0.012412
w 137 -136 -117 0.471195
w 138 137 118 0.703535
w 138 137 -118 0.0555876
w 138 -137 118 0.813656
w 138 -137 -118 0.487442
w 139 138 119 0
w 139 138 -119 0
w 139 -138 119 0
w 139 -138 -119 1
w 140 139 120 0.0166516
w 140 139 -120 0.496782
w 140 -139 120 0.4615
w 140 -139 -120 0.329029
w 141 121 1
w 141 -121 0
w 142 141 122 0
w 142 141 -122 0
w 142 -141 122 1
w 142 -141 -122 1
w 143 142 123 0
w 143 142 -123 0
w 143 -142 123 0
w 143 -142 -123 1
w 144 143 124 1
w 144 143 -124 1
w 144 -143 124 1
w 144 -143 -124 0
w 145 144 125 1
w 145 144 -125 0
w 145 -144 125 1
w 145 -144 -125 1
w 146 145 126 1
w 146 145 -126 1
w 146 -145 126 1
w 146 -145 -126 0
w 147 146 127 0
w 147 146 -127 1
w 147 -146 127 1
w 147 -146 -127 1
w 148 147 128 0
w 148 147 -128 0
w 148 -147 128 0
w 148 -147 -128 1
w 149 148 129 0
w 149 148 -129 1
w 149 -148 129 0
w 149 -148 -129 0
w 150 149 130 1
w 150 149 -130 0
w 150 -149 130 1
w 150 -149 -130 1
w 151 150 131 1
w 151 150 -131 0
w 151 -150 131 0
w 151 -150 -131 1
w 152 151 132 1
w 152 151 -132 1
w 152 -151 132 0
w 152 -151 -132 0
w 153 152 133 0
w 153 152 -133 1
w 153 -152 133 0
w 153 -152 -133 1
w 154 153 134 0.61961
w 154 153 -134 0.943517
w 154 -153 134 0.93553
w 154 -153 -134 0.961665
w 155 154 135 1
w 155 154 -135 1
w 155 -154 135 1
w 155 -154 -135 0
w 156 155 136 0.836075
w 156 155 -136 0.537974
w 156 -155 136 0.861038
w 156 -155 -136 0.536238
w 157 156 137 0
w 157 156 -137 1
w 157 -156 137 0
w 157 -156 -137 0
w 158 157 138 0.769747
w 158 157 -138 0.356472
w 158 -157 138 0.902271
w 158 -157 -138 0.413063
w 159 158 139 0
w 159 158 -139 0
w 159 -158 139 1
w 159 -158 -139 1
w 160 159 140 0.577384
w 160 159 -140 0.596028
w 160 -159 140 0.611602
w 160 -159 -140 0.539049
w 161 141 0.505296
w 161 -141 0.310271
w 162 161 142 1
w 162 161 -142 1
w 162 -161 142 0
w 162 -161 -142 1
w 163 162 143 0.876286
w 163 162 -143 0.0673487
w 163 -162 143 0.676458
w 163 -162 -143 0.732077
w 164 163 144 0.321385
w 164 163 -144 0.0594395
w 164 -163 144 0.798525
w 164 -163 -144 0.0911324
w 165 164 145 1
w 165 164 -145 0
w 165 -164 145 1
w 165 -164 -145 1
w 166 165 146 0
w 166 165 -146 1
w 166 -165 146 0
w 166 -165 -146 0
w 167 166 147 1
w 167 166 -147 1
w 167 -166 147 0
w 167 -166 -147 0
w 168 167 148 0
w 168 167 -148 1
w 168 -167 148 0
w 168 -167 -148 1
w 169 168 149 1
w 169 168 -149 0
w 169 -168 149 1
w 169 -168 -149 1
w 170 169 150 0
w 170 169 -150 0
w 170 -169 150 0
w 170 -169 -150 1
w 171 170 151 0
w 171 170 -151 0
w 171 -170 151 0
w 171 -170 -151 1
w 172 171 152 1
w 172 171 -152 0
w 172 -171 152 1
w 172 -171 -152 1
w 173 172 153 0
w 173 172 -153 0
w 173 -172 153 1
w 173 -172 -153 0
w 174 173 154 0.364484
w 174 173 -154 0.889723
w 174 -173 154 0.997451
w 174 -173 -154 0.690693
w 175 174 155 0
w 175 174 -155 1
w 175 -174 155 0
w 175 -174 -155 0
w 176 175 156 0.151086
w 176 175 -156 0.70575
w 176 -175 156 0.821774
w 176 -175 -156 0.289194
w 177 176 157 0.231698
w 177 176 -157 0.128098
w 177 -176 157 0.410562
w 177 -176 -157 0.497438
w 178 177 158 0.423166
w 178 177 -158 0.576769
w 178 -177 158 0.817207
w 178 -177 -158 0.519941
w 179 178 159 0
w 179 178 -159 0
w 179 -178 159 1
w 179 -178 -159 1
w 180 179 160 0
w 180 179 -160 1
w 180 -179 160 0
w 180 -179 -160 1
w 181 161 1
w 181 -161 0
w 182 181 162 1
w 182 181 -162 0
w 182 -181 162 0
w 182 -181 -162 0
w 183 182 163 0
w 183 182 -163 1
w 183 -182 163 1
w 183 -182 -163 1
w 184 183 164 0.89265
w 184 183 -164 0.713209
w 184 -183 164 0.296512
w 184 -183 -164 0.645915
w 185 184 165 0
w 185 184 -165 1
w 185 -184 165 1
w 185 -184 -165 1
w 186 185 166 1
w 186 185 -166 0
w 186 -185 166 1
w 186 -185 -166 1
w 187 186 167 0
w 187 186 -167 0
w 187 -186 167 0
w 187 -186 -167 1
w 188 187 168 0.635531
w 188 187 -168 0.625
w 188 -187 168 0.307787
w 188 -187 -168 0.426369
w 189 188 169 1
w 189 188 -169 0
w 189 -188 169 1
w 189 -188 -169 0
w 190 189 170 1
w 190 189 -170 0
w 190 -189 170 0
w 190 -189 -170 1
w 191 190 171 0
w 191 190 -171 0
w 191 -190 171 0
w 191 -190 -171 1
w 192 191 172 0.928456
w 192 191 -172 0.700311
w 192 -191 172 0.194959
w 192 -191 -172 0.277005
w 193 192 173 0.650747
w 193 192 -173 0.959512
w 193 -192 173 0.445969
w 193 -192 -173 0.192014
w 194 193 174 0.429484
w 194 193 -174 0.827544
w 194 -193 174 0.29167
w 194 -193 -174 0.73727
w 195 194 175 1
w 195 194 -175 1
w 195 -194 175 0
w 195 -194 -175 0
w 196 195 176 0
w 196 195 -176 1
w 196 -195 176 0
w 196 -195 -176 0
w 197 196 177 1
w 197 196 -177 0
w 197 -196 177 1
w 197 -196 -177 1
w 198 197 178 0
w 198 197 -178 0
w 198 -197 178 1
w 198 -197 -178 0
w 199 198 179 1
w 199 198 -179 1
w 199 -198 179 1
w 199 -198 -179 0
w 200 199 180 1
w 200 199 -180 1
w 200 -199 180 0
w 200 -199 -180 0
w 201 181 0
w 201 -181 1
w 202 201 182 0.956659
w 202 201 -182 0.400961
w 202 -201 182 0.529936
w 202 -201 -182 0.02477
w 203 202 183 0.867239
w 203 202 -183 0.533227
w 203 -202 183 0.144729
w 203 -202 -183 0.238105
w 204 203 184 0
w 204 203 -184 1
w 204 -203 184 1
w 204 -203 -184 1
w 205 204 185 0.344601
w 205 204 -185 0.557491
w 205 -204 185 0.920601
w 205 -204 -185 0.694162
w 206 205 186 1
w 206 205 -186 0
w 206 -205 186 0
w 206 -205 -186 0
w 207 206 187 0.349476
w 207 206 -187 0.984028
w 207 -206 187 0.246393
w 207 -206 -187 0.785719
w 208 207 188 1
w 208 207 -188 1
w 208 -207 188 0
w 208 -207 -188 0
w 209 208 189 0.412518
w 209 208 -189 0.573254
w 209 -208 189 0.300375
w 209 -208 -189 0.557247
w 210 209 190 0.42832
w 210 209 -190 0.118456
w 210 -209 190 0.327176
w 210 -209 -190 0.700365
w 211 210 191 0.947906
w 211 210 -191 0.0449654
w 211 -210 191 0.385142
w 211 -210 -191 0.868507
w 212 211 192 0.766154
w 212 211 -192 0.739726
w 212 -211 192 0.742362
w 212 -211 -192 0.416656
w 213 212 193 0.721341
w 213 212 -193 0.766132
w 213 -212 193 0.737606
w 213 -212 -193 0.967733
w 214 213 194 0.945725
w 214 213 -194 0.143813
w 214 -213 194 0.294229
w 214 -213 -194 0.554805
w 215 214 195 0.0613773
w 215 214 -195 0.967322
w 215 -214 195 0.423083
w 215 -214 -195 0.361753
w 216 215 196 0.234442
w 216 215 -196 0.790073
w 216 -215 196 0.643024
w 216 -215 -196 0.561618
w 217 216 197 1
w 217 216 -197 1
w 217 -216 197 0
w 217 -216 -197 0
w 218 217 198 0
w 218 217 -198 1
w 218 -217 198 0
w 218 -217 -198 0
w 219 218 199 1
w 219 218 -199 0
w 219 -218 199 0
w 219 -218 -199 1
w 220 219 200 0.356609
w 220 219 -200 0.554665
w 220 -219 200 0.849779
w 220 -219 -200 0.650838
w 221 201 0
w 221 -201 1
w 222 221 202 0.076792
w 222 221 -202 0.12269
w 222 -221 202 0.0739682
w 222 -221 -202 0.601361
w 223 222 203 0
w 223 222 -203 1
w 223 -222 203 1
w 223 -222 -203 0
w 224 223 204 0.428274
w 224 223 -204 0.889881
w 224 -223 204 0.570877
w 224 -223 -204 0.806304
w 225 224 205 1
w 225 224 -205 1
w 225 -224 205 0
w 225 -224 -205 1
w 226 225 206 0.0362317
w 226 225 -206 0.404335
w 226 -225 206 0.625501
w 226 -225 -206 0.392841
w 227 226 207 0.475279
w 227 226 -207 0.0436793
w 227 -226 207 0.0684696
w 227 -226 -207 0.174886
w 228 227 208 0.145262
w 228 227 -208 0.297576
w 228 -227 208 0.829863
w 228 -227 -208 0.746623
w 229 228 209 0.693904
w 229 228 -209 0.991008
w 229 -228 209 0.573457
w 229 -228 -209 0.0483824
w 230 229 210 0.00173092
w 230 229 -210 0.938263
w 230 -229 210 0.276945
w 230 -229 -210 0.808035
w 231 230 211 1
w 231 230 -211 1
w 231 -230 211 1
w 231 -230 -211 0
w 232 231 212 0
w 232 231 -212 1
w 232 -231 212 1
w 232 -231 -212 1
w 233 232 213 0.304292
w 233 232 -213 0.174017
w 233 -232 213 0.959295
w 233 -232 -213 0.479178
w 234 233 214 0.104557
w 234 233 -214 0.776753
w 234 -233 214 0.759775
w 234 -233 -214 0.851179
w 235 234 215 1
w 235 234 -215 1
w 235 -234 215 0
w 235 -234 -215 1
w 236 235 216 0.00664873
w 236 235 -216 0.440325
w 236 -235 216 0.825201
w 236 -235 -216 0.814684
w 237 236 217 0.294993
w 237 236 -217 0.546779
w 237 -236 217 0.826977
w 237 -236 -217 0.996258
w 238 237 218 1
w 238 237 -218 1
w 238 -237 218 1
w 238 -237 -218 0
w 239 238 219 0.89692
w 239 238 -219 0.163792
w 239 -238 219 0.0381104
w 239 -238 -219 0.856215
w 240 239 220 0.968023
w 240 239 -220 0.960771
w 240 -239 220 0.419723
w 240 -239 -220 0.727798
w 241 221 0.851184
w 241 -221 0.181477
w 242 241 222 0.856102
w 242 241 -222 0.683539
w 242 -241 222 0.202393
w 242 -241 -222 0.862751
w 243 242 223 0
w 243 242 -223 1
w 243 -242 223 1
w 243 -242 -223 0
w 244 243 224 0
w 244 243 -224 1
w 244 -243 224 0
w 244 -243 -224 0
w 245 244 225 1
w 245 244 -225 0
w 245 -244 225 1
w 245 -244 -225 1
w 246 245 226 0.954803
w 246 245 -226 0.0577119
w 246 -245 226 0.190592
w 246 -245 -226 0.922826
w 247 246 227 0
w 247 246 -227 1
w 247 -246 227 1
w 247 -246 -227 1
w 248 247 228 1
w 248 247 -228 0
w 248 -247 228 0
w 248 -247 -228 0
w 249 248 229 0.857786
w 249 248 -229 0.306368
w 249 -248 229 0.0371442
w 249 -248 -229 0.0819999
w 250 249 230 0.355989
w 250 249 -230 0.380483
w 250 -249 230 0.324538
w 250 -249 -230 0.408588
w 251 250 231 0.708367
w 251 250 -231 0.32528
w 251 -250 231 0.886557
w 251 -250 -231 0.25599
w 252 251 232 0
w 252 251 -232 1
w 252 -251 232 1
w 252 -251 -232 0
w 253 252 233 1
w 253 252 -233 1
w 253 -252 233 0
w 253 -252 -233 1
w 254 253 234 0
w 254 253 -234 1
w 254 -253 234 1
w 254 -253 -234 0
w 255 254 235 0.679279
w 255 254 -235 0.874137
w 255 -254 235 0.147146
w 255 -254 -235 0.716423
w 256 255 236 0.947354
w 256 255 -236 0.0724117
w 256 -255 236 0.33662
w 256 -255 -236 0.271892
w 257 256 237 0
w 257 256 -237 1
w 257 -256 237 1
w 257 -256 -237 0
w 258 257 238 0
w 258 257 -238 0
w 258 -257 238 1
w 258 -257 -238 1
w 259 258 239 0.739728
w 259 258 -239 0.142805
w 259 -258 239 0.608445
w 259 -258 -239 0.258126
w 260 259 240 0.886202
w 260 259 -240 0.0941242
w 260 -259 240 0.0297111
w 260 -259 -240 0.850923
w 261 241 0
w 261 -241 1
w 262 261 242 0.984612
w 262 261 -242 0.0176341
w 262 -261 242 0.246625
w 262 -261 -242 0.94075
w 263 262 243 0.319037
w 263 262 -243 0.277369
w 263 -262 243 0.23688
w 263 -262 -243 0.800036
w 264 263 244 0
w 264 263 -244 1
w 264 -263 244 0
w 264 -263 -244 0
w 265 264 245 0.0597945
w 265 264 -245 0.13622
w 265 -264 245 0.981952
w 265 -264 -245 0.875054
w 266 265 246 0.124757
w 266 265 -246 0.483499
w 266 -265 246 0.134074
w 266 -265 -246 0.953195
w 267 266 247 1
w 267 266 -247 1
w 267 -266 247 1
w 267 -266 -247 0
w 268 267 248 0.323285
w 268 267 -248 0.871029
w 268 -267 248 0.997451
w 268 -267 -248 0.264035
w 269 268 249 0.316487
w 269 268 -249 0.541404
w 269 -268 249 0.0728977
w 269 -268 -249 0.116524
w 270 269 250 0.290038
w 270 269 -250 0.72284
w 270 -269 250 0.0477414
w 270 -269 -250 0.743427
w 271 270 251 1
w 271 270 -251 0
w 271 -270 251 0
w 271 -270 -251 0
w 272 271 252 0.522229
w 272 271 -252 0.466089
w 272 -271 252 0.889668
w 272 -271 -252 0.475424
w 273 272 253 0.117866
w 273 272 -253 0.458331
w 273 -272 253 0.056414
w 273 -272 -253 0.456539
w 274 273 254 0
w 274 273 -254 1
w 274 -273 254 0
w 274 -273 -254 1
w 275 274 255 0
w 275 274 -255 1
w 275 -274 255 0
w 275 -274 -255 1
w 276 275 256 1
w 276 275 -256 0
w 276 -275 256 0
w 276 -275 -256 0
w 277 276 257 1
w 277 276 -257 0
w 277 -276 257 1
w 277 -276 -257 1
w 278 277 258 0.295763
w 278 277 -258 0.0296733
w 278 -277 258 0.650042
w 278 -277 -258 0.771187
w 279 278 259 0.767908
w 279 278 -259 0.229518
w 279 -278 259 0.921877
w 279 -278 -259 0.224447
w 280 279 260 0.729117
w 280 279 -260 0.00427101
w 280 -279 260 0.723998
w 280 -279 -260 0.533807
w 281 261 1
w 281 -261 0
w 282 281 262 0.633393
w 282 281 -262 0.834439
w 282 -281 262 0.892686
w 282 -281 -262 0.0591098
w 283 282 263 0
w 283 282 -263 1
w 283 -282 263 1
w 283 -282 -263 0
w 284 283 264 0
w 284 283 -264 1
w 284 -283 264 1
w 284 -283 -264 1
w 285 284 265 1
w 285 284 -265 0
w 285 -284 265 0
w 285 -284 -265 0
w 286 285 266 0.299289
w 286 285 -266 0.494161
w 286 -285 266 0.748831
w 286 -285 -266 0.840533
w 287 286 267 1
w 287 286 -267 1
w 287 -286 267 0
w 287 -286 -267 1
w 288 287 268 0
w 288 287 -268 1
w 288 -287 268 0
w 288 -287 -268 1
w 289 288 269 0
w 289 288 -269 0
w 289 -288 269 1
w 289 -288 -269 1
w 290 289 270 1
w 290 289 -270 0
w 290 -289 270 0
w 290 -289 -270 0
w 291 290 271 0.523833
w 291 290 -271 0.908133
w 291 -290 271 0.758451
w 291 -290 -271 0.0961168
w 292 291 272 1
w 292 291 -272 1
w 292 -291 272 0
w 292 -291 -272 0
w 293 292 273 0.934451
w 293 292 -273 0.462803
w 293 -292 273 0.570642
w 293 -292 -273 0.735683
w 294 293 274 0.982712
w 294 293 -274 0.170307
w 294 -293 274 0.911841
w 294 -293 -274 0.287469
w 295 294 275 0.269726
w 295 294 -275 0.445453
w 295 -294 275 0.690345
w 295 -294 -275 0.96889
w 296 295 276 0.830211
w 296 295 -276 0.0141129
w 296 -295 276 0.222821
w 296 -295 -276 0.647224
w 297 296 277 0
w 297 296 -277 1
w 297 -296 277 1
w 297 -296 -277 1
w 298 297 278 1
w 298 297 -278 0
w 298 -297 278 1
w 298 -297 -278 0
w 299 298 279 0.671007
w 299 298 -279 0.622219
w 299 -298 279 0.0887654
w 299 -298 -279 0.241649
w 300 299 280 0
w 300 299 -280 1
w 300 -299 280 0
w 300 -299 -280 1
w 301 281 0.192251
w 301 -281 0.0404347
w 302 301 282 0.882597
w 302 301 -282 0.00932425
w 302 -301 282 0.79001
w 302 -301 -282 0.712807
w 303 302 283 1
w 303 302 -283 0
w 303 -302 283 1
w 303 -302 -283 1
w 304 303 284 0.26311
w 304 303 -284 0.594282
w 304 -303 284 0.798261
w 304 -303 -284 0.76953
w 305 304 285 1
w 305 304 -285 0
w 305 -304 285 0
w 305 -304 -285 0
w 306 305 286 1
w 306 305 -286 0
w 306 -305 286 0
w 306 -305 -286 1
w 307 306 287 0.965628
w 307 306 -287 0.666277
w 307 -306 287 0.304561
w 307 -306 -287 0.15788
w 308 307 288 0.261844
w 308 307 -288 0.0404763
w 308 -307 288 0.716036
w 308 -307 -288 0.051854
w 309 308 289 0.739473
w 309 308 -289 0.0646847
w 309 -308 289 0.113315
w 309 -308 -289 0.92868
w 310 309 290 0.644402
w 310 309 -290 0.19179
w 310 -309 290 0.583297
w 310 -309 -290 0.442663
w 311 310 291 0.905269
w 311 310 -291 0.0983758
w 311 -310 291 0.418618
w 311 -310 -291 0.853204
w 312 311 292 1
w 312 311 -292 1
w 312 -311 292 0
w 312 -311 -292 1
w 313 312 293 0.786195
w 313 312 -293 0.901183
w 313 -312 293 0.451749
w 313 -312 -293 0.0907557
w 314 313 294 1
w 314 313 -294 0
w 314 -313 294 1
w 314 -313 -294 1
w 315 314 295 1
w 315 314 -295 1
w 315 -314 295 0
w 315 -314 -295 0
w 316 315 296 0.458154
w 316 315 -296 0.61054
w 316 -315 296 0.73444
w 316 -315 -296 0.0414513
w 317 316 297 1
w 317 316 -297 1
w 317 -316 297 1
w 317 -316 -297 0
w 318 317 298 0.576675
w 318 317 -298 0.612514
w 318 -317 298 0.689828
w 318 -317 -298 0.57014
w 319 318 299 0.4753
w 319 318 -299 0.356335
w 319 -318 299 0.449252
w 319 -318 -299 0.927049
w 320 319 300 1
w 320 319 -300 1
w 320 -319 300 0
w 320 -319 -300 1
w 321 301 0.204144
w 321 -301 0.460678
w 322 321 302 0.673283
w 322 321 -302 0.426816
w 322 -321 302 0.116628
w 322 -321 -302 0.131437
w 323 322 303 1
w 323 322 -303 0
w 323 -322 303 0
w 323 -322 -303 0
w 324 323 304 0
w 324 323 -304 0
w 324 -323 304 0
w 324 -323 -304 1
w 325 324 305 0
w 325 324 -305 1
w 325 -324 305 0
w 325 -324 -305 1
w 326 325 306 0.271042
w 326 325 -306 0.0117095
w 326 -325 306 0.192378
w 326 -325 -306 0.779357
w 327 326 307 1
w 327 326 -307 0
w 327 -326 307 0
w 327 -326 -307 0
w 328 327 308 0.631203
w 328 327 -308 0.869495
w 328 -327 308 0.274706
w 328 -327 -308 0.747831
w 329 328 309 0
w 329 328 -309 0
w 329 -328 309 1
w 329 -328 -309 0
w 330 329 310 0
w 330 329 -310 0
w 330 -329 310 1
w 330 -329 -310 1
w 331 330 311 1
w 331 330 -311 1
w 331 -330 311 0
w 331 -330 -311 1
w 332 331 312 0.173485
w 332 331 -312 0.918692
w 332 -331 312 0.790192
w 332 -331 -312 0.952843
w 333 332 313 0
w 333 332 -313 1
w 333 -332 313 0
w 333 -332 -313 0
w 334 333 314 0
w 334 333 -314 0
w 334 -333 314 0
w 334 -333 -314 1
w 335 334 315 0.774715
w 335 334 -315 0.0510707
w 335 -334 315 0.0227188
w 335 -334 -315 0.177336
w 336 335 316 0
w 336 335 -316 1
w 336 -335 316 1
w 336 -335 -316 1
w 337 336 317 0
w 337 336 -317 1
w 337 -336 317 0
w 337 -336 -317 0
w 338 337 318 0.160314
w 338 337 -318 0.177104
w 338 -337 318 0.526202
w 338 -337 -318 0.113157
w 339 338 319 0
w 339 338 -319 0
w 339 -338 319 0
w 339 -338 -319 1
w 340 339 320 0.970494
w 340 339 -320 0.134902
w 340 -339 320 0.10381
w 340 -339 -320 0.422665
w 341 321 0.878525
w 341 -321 0.473736
w 342 341 322 1
w 342 341 -322 0
w 342 -341 322 1
w 342 -341 -322 0
w 343 342 323 0.851775
w 343 342 -323 0.163628
w 343 -342 323 0.758649
w 343 -342 -323 0.203205
w 344 343 324 0
w 344 343 -324 1
w 344 -343 324 1
w 344 -343 -324 1
w 345 344 325 0.564036
w 345 344 -325 0.0189476
w 345 -344 325 0.831736
w 345 -344 -325 0.872498
w 346 345 326 0
w 346 345 -326 1
w 346 -345 326 0
w 346 -345 -326 0
w 347 346 327 1
w 347 346 -327 1
w 347 -346 327 1
w 347 -346 -327 0
w 348 347 328 0
w 348 347 -328 1
w 348 -347 328 1
w 348 -347 -328 0
w 349 348 329 1
w 349 348 -329 1
w 349 -348 329 0
w 349 -348 -329 0
w 350 349 330 0
w 350 349 -330 1
w 350 -349 330 0
w 350 -349 -330 0
w 351 350 331 0.0967925
w 351 350 -331 0.738447
w 351 -350 331 0.594374
w 351 -350 -331 0.969291
w 352 351 332 1
w 352 351 -332 0
w 352 -351 332 0
w 352 -351 -332 1
w 353 352 333 1
w 353 352 -333 1
w 353 -352 333 0
w 353 -352 -333 1
w 354 353 334 0
w 354 353 -334 1
w 354 -353 334 1
w 354 -353 -334 0
w 355 354 335 0.161376
w 355 354 -335 0.0522629
w 355 -354 335 0.0107856
w 355 -354 -335 0.229607
w 356 355 336 0.505708
w 356 355 -336 0.0433161
w 356 -355 336 0.83848
w 356 -355 -336 0.0384639
w 357 356 337 0.601118
w 357 356 -337 0.135256
w 357 -356 337 0.501263
w 357 -356 -337 0.195493
w 358 357 338 0
w 358 357 -338 1
w 358 -357 338 1
w 358 -357 -338 1
w 359 358 339 0.656329
w 359 358 -339 0.576846
w 359 -358 339 0.900093
w 359 -358 -339 0.357522
w 360 359 340 0
w 360 359 -340 0
w 360 -359 340 1
w 360 -359 -340 1
w 361 341 0.819454
w 361 -341 0.12974
w 362 361 342 0.830239
w 362 361 -342 0.359347
w 362 -361 342 0.703362
w 362 -361 -342 0.335947
w 363 362 343 0
w 363 362 -343 0
w 363 -362 343 1
w 363 -362 -343 1
w 364 363 344 0.666742
w 364 363 -344 0.338454
w 364 -363 344 0.614215
w 364 -363 -344 0.378612
w 365 364 345 0
w 365 364 -345 1
w 365 -364 345 1
w 365 -364 -345 0
w 366 365 346 0.774703
w 366 365 -346 0.861337
w 366 -365 346 0.204803
w 366 -365 -346 0.891273
w 367 366 347 0
w 367 366 -347 0
w 367 -366 347 1
w 367 -366 -347 1
w 368 367 348 0.130041
w 368 367 -348 0.856263
w 368 -367 348 0.348723
w 368 -367 -348 0.833403
w 369 368 349 0
w 369 368 -349 1
w 369 -368 349 1
w 369 -368 -349 0
w 370 369 350 0.0762883
w 370 369 -350 0.583607
w 370 -369 350 0.85666
w 370 -369 -350 0.690503
w 371 370 351 0.0828695
w 371 370 -351 0.537989
w 371 -370 351 0.376627
w 371 -370 -351 0.957479
w 372 371 352 0
w 372 371 -352 1
w 372 -371 352 1
w 372 -371 -352 1
w 373 372 353 0.107846
w 373 372 -353 0.779252
w 373 -372 353 0.483092
w 373 -372 -353 0.249088
w 374 373 354 0.472468
w 374 373 -354 0.379129
w 374 -373 354 0.661538
w 374 -373 -354 0.821191
w 375 374 355 0
w 375 374 -355 0
w 375 -374 355 0
w 375 -374 -355 1
w 376 375 356 1
w 376 375 -356 0
w 376 -375 356 0
w 376 -375 -356 0
w 377 376 357 0
w 377 376 -357 0
w 377 -376 357 0
w 377 -376 -357 1
w 378 377 358 0.779777
w 378 377 -358 0.735177
w 378 -377 358 0.670094
w 378 -377 -358 0.35246
w 379 378 359 1
w 379 378 -359 0
w 379 -378 359 0
w 379 -378 -359 1
w 380 379 360 0.314193
w 380 379 -360 0.406158
w 380 -379 360 0.598526
w 380 -379 -360 0.135384
w 381 361 0.452273
w 381 -361 0.707962
w 382 381 362 0
w 382 381 -362 1
w 382 -381 362 0
w 382 -381 -362 0
w 383 382 363 1
w 383 382 -363 0
w 383 -382 363 0
w 383 -382 -363 0
w 384 383 364 0.323611
w 384 383 -364 0.0485621
w 384 -383 364 0.4974
w 384 -383 -364 0.0587885
w 385 384 365 0.84986
w 385 384 -365 0.417421
w 385 -384 365 0.496596
w 385 -384 -365 0.981572
w 386 385 366 0
w 386 385 -366 0
w 386 -385 366 1
w 386 -385 -366 1
w 387 386 367 0.708722
w 387 386 -367 0.548474
w 387 -386 367 0.969358
w 387 -386 -367 0.416684
w 388 387 368 0.842001
w 388 387 -368 0.614089
w 388 -387 368 0.0673993
w 388 -387 -368 0.2113
w 389 388 369 0.3425
w 389 388 -369 0.76776
w 389 -388 369 0.190269
w 389 -388 -369 0.663117
w 390 389 370 1
w 390 389 -370 1
w 390 -389 370 1
w 390 -389 -370 0
w 391 390 371 0
w 391 390 -371 1
w 391 -390 371 0
w 391 -390 -371 0
w 392 391 372 1
w 392 391 -372 0
w 392 -391 372 1
w 392 -391 -372 0
w 393 392 373 0.672368
w 393 392 -373 0.00414393
w 393 -392 373 0.315066
w 393 -392 -373 0.641726
w 394 393 374 0
w 394 393 -374 1
w 394 -393 374 0
w 394 -393 -374 0
w 395 394 375 0.91946
w 395 394 -375 0.47991
w 395 -394 375 0.462787
w 395 -394 -375 0.109729
w 396 395 376 1
w 396 395 -376 0
w 396 -395 376 1
w 396 -395 -376 0
w 397 396 377 1
w 397 396 -377 0
w 397 -396 377 0
w 397 -396 -377 1
w 398 397 378 0.914788
w 398 397 -378 0.360294
w 398 -397 378 0.576666
w 398 -397 -378 0.0700712
w 399 398 379 0.343257
w 399 398 -379 0.742439
w 399 -398 379 0.65986
w 399 -398 -379 0.658323
w 400 399 380 1
w 400 399 -380 1
w 400 -399 380 0
w 400 -399 -380 0